100 500 200 500 10 100
83 302
40 496
45 292
97 492
17 218
19 218
15 257
33 274
48 287
79 484
68 305
52 310
88 280
86 222
81 453
29 201
90 357
63 387
91 391
93 352
66 363
67 452
70 217
70 308
99 367
23 329
25 229
33 254
37 348
26 299
38 423
89 304
21 495
69 477
80 318
80 294
81 396
69 299
36 219
75 416
40 397
17 307
71 433
76 433
48 386
69 329
17 280
57 336
78 373
47 409
94 338
92 370
26 446
78 396
70 275
93 249
94 304
72 347
40 415
25 265
56 260
71 358
58 225
45 313
60 204
83 287
62 474
81 325
14 324
83 283
63 229
37 320
93 387
74 268
100 495
27 300
36 427
17 293
32 351
72 299
89 377
89 396
45 490
45 469
80 440
40 411
19 281
52 201
28 446
88 468
14 301
72 393
56 475
77 480
86 290
60 379
19 362
77 215
33 494
20 414
